WARNING: for repeatability, setting FPU to use double precision
============================[ Problem Statistics ]=============================
|                                                                             |
|  Number of variables:            64                                         |
|  Number of clauses:             710                                         |
|  Parse time:                   0.00 s                                       |
|                                                                             |
============================[ Search Statistics ]==============================
| Conflicts |          ORIGINAL         |          LEARNT          | Progress |
|           |    Vars  Clauses Literals |    Limit  Clauses Lit/Cl |          |
===============================================================================
===============================================================================
restarts              : 1
conflicts             : 1              (380 /sec)
decisions             : 22             (0.00 % random) (8355 /sec)
propagations          : 74             (28105 /sec)
conflict literals     : 16             (0.00 % deleted)
Memory used           : 11.00 MB
CPU time              : 0.002633 s

SATISFIABLE
